1201.03,47.15,56.51
1257.93,45.02,53.95
1306.29,43.35,51.95
1272.73,44.49,53.32
1166.05,48.56,58.2
1259.42,44.96,53.89
1364.25,41.51,49.75
1216.4,46.55,55.79
1228.4,46.1,55.25
1165.4,48.59,58.23
1427.73,39.66,47.53
1313.9,43.1,51.65
1053.05,53.77,64.45
1296.47,43.68,52.35
1225.15,46.22,55.39
1420.49,39.86,47.78
1159.33,48.84,58.54
1181.94,47.91,57.42
1291.66,43.84,52.54
1315.55,43.04,51.59
